(declare-datatype Nat ((zero) (succ (p Nat))))
(declare-datatype list ((nil) (cons (head Nat) (tail list))))
(declare-datatype
  pair ((pair2 (proj1-pair list) (proj2-pair list))))
(define-fun-rec
  take
  ((x Nat) (y list)) list
  (match x
    ((zero nil)
     ((succ z)
      (match y
        ((nil nil)
         ((cons z2 xs) (cons z2 (take z xs)))))))))
(define-fun-rec
  plus
  ((x Nat) (y Nat)) Nat
  (match x
    ((zero y)
     ((succ z) (succ (plus z y))))))
(define-fun-rec
  minus
  ((x Nat) (y Nat)) Nat
  (match x
    ((zero zero)
     ((succ z)
      (match y
        ((zero zero)
         ((succ y2) (minus z y2))))))))
(define-fun-rec
  third
  ((x Nat)) Nat
  (ite
    (= x (succ (succ zero))) zero
    (ite
      (= x (succ zero)) zero
      (match x
        ((zero zero)
         ((succ y)
          (plus (succ zero)
            (third (minus (succ y) (succ (succ (succ zero))))))))))))
(define-fun-rec
  leq
  ((x Nat) (y Nat)) Bool
  (match x
    ((zero true)
     ((succ z)
      (match y
        ((zero false)
         ((succ x2) (leq z x2))))))))
(define-fun-rec
  ordered
  ((x list)) Bool
  (match x
    ((nil true)
     ((cons y z)
      (match z
        ((nil true)
         ((cons y2 xs) (and (leq y y2) (ordered (cons y2 xs))))))))))
(define-fun
  sort2
  ((x Nat) (y Nat)) list
  (ite (leq x y) (cons x (cons y nil)) (cons y (cons x nil))))
(define-fun-rec
  length
  ((x list)) Nat
  (match x
    ((nil zero)
     ((cons y l) (plus (succ zero) (length l))))))
(define-fun-rec
  drop
  ((x Nat) (y list)) list
  (match x
    ((zero y)
     ((succ z)
      (match y
        ((nil nil)
         ((cons z2 xs1) (drop z xs1))))))))
(define-fun
  splitAt
  ((x Nat) (y list)) pair (pair2 (take x y) (drop x y)))
(define-fun-rec
  ++
  ((x list) (y list)) list
  (match x
    ((nil y)
     ((cons z xs) (cons z (++ xs y))))))
(define-fun-rec
  reverse
  ((x list)) list
  (match x
    ((nil nil)
     ((cons y xs) (++ (reverse xs) (cons y nil))))))
(define-funs-rec
  ((nstooge1sort2
    ((x list)) list)
   (nstoogesort
    ((x list)) list)
   (nstooge1sort1
    ((x list)) list))
  ((match (splitAt (third (length x)) (reverse x))
     (((pair2 ys1 zs1) (++ (nstoogesort zs1) (reverse ys1)))))
   (match x
     ((nil nil)
      ((cons y z)
       (match z
         ((nil (cons y nil))
          ((cons y2 x2)
           (match x2
             ((nil (sort2 y y2))
              ((cons x3 x4)
               (nstooge1sort2
                 (nstooge1sort1
                   (nstooge1sort2 (cons y (cons y2 (cons x3 x4)))))))))))))))
   (match (splitAt (third (length x)) x)
     (((pair2 ys1 zs) (++ ys1 (nstoogesort zs)))))))
(assert
  (forall ((x Nat) (y Nat) (z Nat))
    (= (plus x (plus y z)) (plus (plus x y) z))))
(assert (forall ((x Nat) (y Nat)) (= (plus x y) (plus y x))))
(assert (forall ((x Nat)) (= (plus x zero) x)))
(assert (forall ((x Nat)) (= (plus zero x) x)))
(assert (not (forall ((xs list)) (ordered (nstoogesort xs)))))
(check-sat)
